NAME : LC1_6_4
TYPE : PDPTW
DIMENSION : 150
EDGE_WEIGHT_TYPE : EXACT_2D
NODE_COORD_SECTION
1 1 0
2 150 0
3 0 0
4 20 0
5 395 2
6 0 1302
7 3 229
8 1302 90
9 214 156
10 90 0
11 260 10
12 0 191
13 10 0
14 190 7
15 0 1243
16 8 85
17 1308 90
18 105 230
19 90 63
20 111 30
21 0 17
22 -30 0
23 0 12
24 0 1286
25 13 143
26 1367 90
27 173 233
28 90 226
29 24 -20
30 212 0
31 -20 0
32 0 17
33 551 633
34 18 141
35 1391 90
36 100 73
37 90 472
38 70 30
39 0 11
40 10 0
41 99 22
42 412 485
43 23 129
44 1350 90
45 62 65
46 90 596
47 239 10
48 0 216
49 -20 0
50 0 27
51 722 775
52 28 203
53 1353 90
54 251 241
55 90 0
56 110 -20
57 59 0
58 10 0
59 383 32
60 0 1270
61 33 145
62 1372 90
63 121 170
64 90 0
65 141 -20
66 220 0
67 -20 0
68 0 37
69 701 769
70 38 122
71 542 90
72 119 267
73 90 587
74 113 -20
75 415 0
76 -20 0
77 0 42
78 0 1290
79 43 157
80 1287 90
81 73 226
82 90 479
83 109 40
84 0 342
85 10 0
86 85 47
87 0 1352
88 48 31
89 1254 90
90 10 147
91 90 0
92 176 20
93 0 618
94 20 135
95 16 52
96 0 1281
97 53 119
98 1290 90
99 220 74
100 90 211
101 175 -30
102 537 0
103 30 0
104 598 57
105 201 249
106 58 61
107 494 90
108 140 143
109 90 0
110 125 30
111 0 222
112 20 0
113 468 62
114 0 1325
115 63 103
116 1312 90
117 71 154
118 90 66
119 27 20
120 0 574
121 20 797
122 64 67
123 0 1300
124 68 108
125 1351 90
126 86 230
127 90 0
128 221 -10
129 103 0
130 -30 0
131 0 72
132 0 1284
133 73 151
134 446 90
135 83 30
136 90 0
137 184 -30
138 252 0
139 -20 0
140 0 77
141 569 632
142 78 263
143 626 90
144 259 59
145 90 217
146 26 -10
147 272 0
148 20 1026
149 8 82
150 0 1240
PICKUP_AND_DELIVERY_SECTION
1 0 0 0 0 0 0
2 0 0 0 0 1496 0
3 0 0 0 0 0 17
4 0 0 0 0 90 90
5 0 0 0 0 254 254
6 0 0 0 0 519 519
7 0 0 0 0 -10 -10
8 0 0 0 0 0 0
9 0 0 0 0 0 0
10 0 0 0 0 5 5
11 0 0 0 0 1293 0
12 0 0 0 0 29 29
13 0 0 0 0 90 90
14 0 0 0 0 277 277
15 0 0 0 0 0 0
16 0 0 0 0 -20 -20
17 0 0 0 0 0 0
18 0 0 0 0 0 0
19 0 0 0 0 10 0
20 0 0 0 0 1366 0
21 0 0 0 0 65 65
22 0 0 0 0 90 90
23 0 0 0 0 233 233
24 0 0 0 0 554 554
25 0 0 0 0 -10 -10
26 0 0 0 0 0 0
27 0 0 0 0 0 0
28 0 0 0 0 15 0
29 0 0 0 0 1265 0
30 0 0 0 0 277 277
31 0 0 0 0 90 90
32 0 0 0 0 105 105
33 0 0 0 0 10 10
34 0 0 0 0 -30 -30
35 0 0 0 0 0 0
36 0 0 0 0 0 0
37 0 0 0 0 20 0
38 0 0 0 0 1287 0
39 0 0 0 0 161 161
40 0 0 0 0 90 90
41 0 0 0 0 280 280
42 0 0 0 0 386 386
43 0 0 0 0 20 20
44 0 0 0 0 284 0
45 0 0 0 0 0 0
46 0 0 0 0 25 0
47 0 0 0 0 1268 0
48 0 0 0 0 9 9
49 0 0 0 0 90 90
50 0 0 0 0 228 228
51 0 0 0 0 577 577
52 0 0 0 0 -20 -20
53 0 0 0 0 0 0
54 0 0 0 0 0 0
55 0 0 0 0 30 30
56 0 0 0 0 1349 0
57 0 0 0 0 106 106
58 0 0 0 0 90 90
59 0 0 0 0 102 102
60 0 0 0 0 288 288
61 0 0 0 0 -30 -30
62 0 0 0 0 0 0
63 0 0 0 0 569 569
64 0 0 0 0 35 35
65 0 0 0 0 1281 0
66 0 0 0 0 167 167
67 0 0 0 0 90 90
68 0 0 0 0 229 229
69 0 0 0 0 362 362
70 0 0 0 0 10 10
71 0 0 0 0 251 0
72 0 0 0 0 0 0
73 0 0 0 0 40 0
74 0 0 0 0 1317 0
75 0 0 0 0 257 257
76 0 0 0 0 90 90
77 0 0 0 0 266 266
78 0 0 0 0 0 0
79 0 0 0 0 20 20
80 0 0 0 0 208 0
81 0 0 0 0 0 0
82 0 0 0 0 45 0
83 0 0 0 0 294 294
84 0 0 0 0 12 12
85 0 0 0 0 90 90
86 0 0 0 0 126 126
87 0 0 0 0 0 0
88 0 0 0 0 -10 -10
89 0 0 0 0 0 0
90 0 0 0 0 0 0
91 0 0 0 0 50 50
92 0 0 0 0 1375 0
93 0 0 0 0 277 277
94 0 0 0 0 90 90
95 0 0 0 0 232 232
96 0 0 0 0 325 325
97 0 0 0 0 -30 -30
98 0 0 0 0 0 0
99 0 0 0 0 835 835
100 0 0 0 0 55 0
101 0 0 0 0 1369 0
102 0 0 0 0 144 144
103 0 0 0 0 90 90
104 0 0 0 0 285 285
105 0 0 0 0 0 0
106 0 0 0 0 40 40
107 0 0 0 0 215 0
108 0 0 0 0 0 0
109 0 0 0 0 60 60
110 0 0 0 0 1348 0
111 0 0 0 0 114 114
112 0 0 0 0 90 90
113 0 0 0 0 80 80
114 0 0 0 0 294 294
115 0 0 0 0 20 20
116 0 0 0 0 9 0
117 0 0 0 0 0 0
118 0 0 0 0 65 0
119 0 0 0 0 438 438
120 0 0 0 0 67 67
121 0 0 0 0 90 90
122 0 0 0 0 132 132
123 0 0 0 0 0 0
124 0 0 0 0 10 10
125 0 0 0 0 331 0
126 0 0 0 0 0 0
127 0 0 0 0 70 70
128 0 0 0 0 1302 0
129 0 0 0 0 116 116
130 0 0 0 0 90 90
131 0 0 0 0 28 28
132 0 0 0 0 0 0
133 0 0 0 0 20 20
134 0 0 0 0 141 0
135 0 0 0 0 0 0
136 0 0 0 0 75 75
137 0 0 0 0 1372 0
138 0 0 0 0 141 141
139 0 0 0 0 90 90
140 0 0 0 0 156 156
141 0 0 0 0 0 0
142 0 0 0 0 -20 -20
143 0 0 0 0 0 0
144 0 0 0 0 563 563
145 0 0 0 0 80 0
146 0 0 0 0 1282 0
147 0 0 0 0 59 59
148 0 0 0 0 90 90
149 0 0 0 0 4 4
150 0 0 0 0 0 0
DEPOT_SECTION
1 
-1
EOF
